
Gurobi 12.0.2 (win64) logging started Mon Sep 15 14:20:59 2025

Set parameter LogFile to value "C:\Ioana\_uni\honours\slp\algorithm\Main_files\results\paracetamol with updated samples\Task_005_Sample007_irr_gurobi.log"
Gurobi Optimizer version 12.0.2 build v12.0.2rc0 (win64 - Windows 11.0 (26100.2))

CPU model: Intel(R) Core(TM) Ultra 5 125H, instruction set [SSE2|AVX|AVX2]
Thread count: 14 physical cores, 18 logical processors, using up to 18 threads

Non-default parameters:
TimeLimit  2200

Optimize a model with 47236 rows, 34517 columns and 146727 nonzeros
Model fingerprint: 0xda4bfed7
Variable types: 17268 continuous, 17249 integer (17249 binary)
Coefficient statistics:
  Matrix range     [1e-04, 8e+04]
  Objective range  [1e-04, 9e-01]
  Bounds range     [1e+00, 1e+03]
  RHS range        [1e+00, 1e+00]
Presolve removed 30772 rows and 21544 columns
Presolve time: 0.32s
Presolved: 16464 rows, 12973 columns, 54814 nonzeros
Variable types: 6424 continuous, 6549 integer (6549 binary)
Found heuristic solution: objective 9.3036047

Root relaxation: objective 9.169570e-01, 3282 iterations, 0.24 seconds (0.61 work units)

    Nodes    |    Current Node    |     Objective Bounds      |     Work
 Expl Unexpl |  Obj  Depth IntInf | Incumbent    BestBd   Gap | It/Node Time

     0     0    0.91696    0    2    9.30360    0.91696  90.1%     -    0s
H    0     0                       1.7963009    0.91696  49.0%     -    0s
H    0     0                       0.9611807    0.91696  4.60%     -    0s
     0     0    0.91696    0    2    0.96118    0.91696  4.60%     -    0s

Explored 1 nodes (3282 simplex iterations) in 0.68 seconds (1.08 work units)
Thread count was 18 (of 18 available processors)

Solution count 3: 0.961181 1.7963 9.3036 

Optimal solution found (tolerance 1.00e-04)
Best objective 9.611807318372e-01, best bound 9.611807318372e-01, gap 0.0000%
